300
50 50
1 35 595
2 35 693
3 35 784
4 35 287
5 35 894
6 35 696
7 35 756
8 35 152
9 35 537
10 35 754
11 35 194
12 35 722
13 34 739
14 34 865
15 34 38
16 34 213
17 34 44
18 34 730
19 34 74
20 34 797
21 34 369
22 34 143
23 34 943
24 34 226
25 34 282
26 34 934
27 34 475
28 34 715
29 34 889
30 34 154
31 33 914
32 33 821
33 33 268
34 33 888
35 33 285
36 33 554
37 33 964
38 32 74
39 32 799
40 32 914
41 32 676
42 32 827
43 32 559
44 32 339
45 32 882
46 32 456
47 32 527
48 32 369
49 32 297
50 32 565
51 31 777
52 31 615
53 31 708
54 31 222
55 31 61
56 31 663
57 31 741
58 31 930
59 30 143
60 30 688
61 30 574
62 30 44
63 30 823
64 30 168
65 30 582
66 30 771
67 30 712
68 29 205
69 29 698
70 29 981
71 29 369
72 29 376
73 29 858
74 29 403
75 29 583
76 29 664
77 29 133
78 28 2
79 28 759
80 28 61
81 28 339
82 28 732
83 28 157
84 28 436
85 28 928
86 28 877
87 28 160
88 27 676
89 27 908
90 27 960
91 27 553
92 27 187
93 27 312
94 27 293
95 27 463
96 27 471
97 27 627
98 27 492
99 27 934
100 27 171
101 27 930
102 27 967
103 26 241
104 26 418
105 26 368
106 26 493
107 26 145
108 26 218
109 26 765
110 26 19
111 25 142
112 25 531
113 25 689
114 25 762
115 25 824
116 24 515
117 24 301
118 24 589
119 24 362
120 24 610
121 24 945
122 24 577
123 24 819
124 24 330
125 24 721
126 24 350
127 24 530
128 24 117
129 24 353
130 24 380
131 24 170
132 24 751
133 24 241
134 24 403
135 24 686
136 24 469
137 24 735
138 24 488
139 23 481
140 23 765
141 23 824
142 23 600
143 23 377
144 23 824
145 23 515
146 23 318
147 23 698
148 23 738
149 23 744
150 22 527
151 22 109
152 22 554
153 22 440
154 22 973
155 22 837
156 22 440
157 22 554
158 22 36
159 22 544
160 22 738
161 22 633
162 22 638
163 21 376
164 21 871
165 21 677
166 21 392
167 21 247
168 21 126
169 21 278
170 21 856
171 20 333
172 20 93
173 20 399
174 20 987
175 20 360
176 20 713
177 20 636
178 20 722
179 20 868
180 19 849
181 19 999
182 19 890
183 19 707
184 19 520
185 19 499
186 19 123
187 19 52
188 19 747
189 19 509
190 18 659
191 18 383
192 18 432
193 18 739
194 18 599
195 18 246
196 18 799
197 18 519
198 18 268
199 17 146
200 17 268
201 17 642
202 17 484
203 17 467
204 17 688
205 17 751
206 17 723
207 17 404
208 17 401
209 17 515
210 17 152
211 16 376
212 16 112
213 16 465
214 16 861
215 16 696
216 16 619
217 16 862
218 16 761
219 16 640
220 16 917
221 16 382
222 16 847
223 15 676
224 15 200
225 15 340
226 15 235
227 15 485
228 15 440
229 15 838
230 15 733
231 15 613
232 15 87
233 15 362
234 15 190
235 15 192
236 15 128
237 15 451
238 15 891
239 14 504
240 14 160
241 14 307
242 14 526
243 14 820
244 14 416
245 14 703
246 14 970
247 13 102
248 13 279
249 13 531
250 13 307
251 13 157
252 13 827
253 13 741
254 13 557
255 13 161
256 13 234
257 13 6
258 13 127
259 12 707
260 12 419
261 12 310
262 12 955
263 12 376
264 12 890
265 12 484
266 12 433
267 12 414
268 12 120
269 11 241
270 11 39
271 11 642
272 11 244
273 11 81
274 11 252
275 11 454
276 11 89
277 11 697
278 11 893
279 11 169
280 10 16
281 10 846
282 10 404
283 10 556
284 10 187
285 10 260
286 10 409
287 10 601
288 10 454
289 10 625
290 10 536
291 10 700
292 10 583
293 10 154
294 10 567
295 10 39
296 10 965
297 10 27
298 10 925
299 10 371
300 10 193
